data/CAV19/chc/CAV/64bits_unsigned/32bits_unsignedcegis_danger_benchmark_svcomp_overflow_true-unreach-call.sl_32bits_unsigned.sl_64bits_unsigned.smt2
(set-logic HORN)
(declare-fun inv ((_ BitVec 64) ) Bool)
(assert (forall ((x (_ BitVec 64))) 
       (=> ( = x #x0000000a ) (inv x))))
(assert (forall ((x (_ BitVec 64)) (x! (_ BitVec 64))) 
       (=> (and (inv x) ( and ( bvuge x #x0000000a ) ( = x! ( bvadd x #x00000002 ) ) )) (inv x!))))
(assert (forall ((x (_ BitVec 64))) 
       (=> (inv x) ( or ( = #x00000000 ( bvurem x #x00000002 ) ) ( bvuge x #x0000000a ) ))))
(check-sat)
